Flows = {"f1", "f2", "f3", "f4"};
Jobs = {"j1", "j2"};
numConstraints = 5;
A = [[1, 0, 0, 0], 
    [0, 1, 0, 0],
    [0, 0, 1, 0],
    [0, 0, 0, 1],
    [0, 0, 1, 1]];
C = [5, 10, 7, 10, 14];
AllowedFlows = [[1, 1, 0, 0],
               [1, 1, 0, 0],
               [0, 0, 1, 1],
               [0, 0, 1, 1]];